(declare-const ab_0 Bool)
(declare-const x_2 Int)
(declare-const a_2 Int)
(declare-const x_6 Int)
(declare-const x_1 Int)
(declare-const a_9 Int)
(declare-const temp_5_0 Bool)
(declare-const temp_4_0 Bool)
(declare-const x_15 Int)
(declare-const x_11 Int)
(declare-const a_1 Int)
(declare-const temp_3_0 Bool)
(declare-const a_11 Int)
(declare-const x_12 Int)
(declare-const ab_7 Bool)
(declare-const temp_1_0 Bool)
(declare-const b_0 Int)
(declare-const a_5 Int)
(declare-const x_13 Int)
(declare-const ab_4 Bool)
(declare-const temp_0_0 Bool)
(declare-const ab_3 Bool)
(declare-const x_8 Int)
(declare-const a_10 Int)
(declare-const a_6 Int)
(declare-const objective Int)
(declare-const x_9 Int)
(declare-const x_4 Int)
(declare-const a_8 Int)
(declare-const ab_6 Bool)
(declare-const b_1 Int)
(declare-const temp_7_0 Bool)
(declare-const ab_2 Bool)
(declare-const x_10 Int)
(declare-const x_5 Int)
(declare-const x_0 Int)
(declare-const a_3 Int)
(declare-const a_4 Int)
(declare-const x_7 Int)
(declare-const a_7 Int)
(declare-const ab_5 Bool)
(declare-const x_3 Int)
(declare-const a_0 Int)
(declare-const temp_6_0 Bool)
(declare-const x_14 Int)
(declare-const temp_2_0 Bool)
(declare-const ab_1 Bool)
(assert (= a_1 3))
(assert (= b_1 4))
(assert (or ab_0 (= x_1 0)))
(assert (or ab_1 (= temp_0_0 (< a_1 10))))
(assert (or ab_2 (= x_2 (+ x_1 1))))
(assert (or ab_3 (= a_2 (+ a_1 1))))
(assert (or ab_1 (= temp_1_0 (and temp_0_0 (< a_2 10)))))
(assert (or ab_2 (= x_3 (+ x_2 1))))
(assert (or ab_3 (= a_3 (+ a_2 1))))
(assert (or ab_1 (= temp_2_0 (and temp_1_0 (< a_3 10)))))
(assert (or ab_2 (= x_4 (+ x_3 1))))
(assert (or ab_3 (= a_4 (+ a_3 1))))
(assert (or ab_1 (= temp_3_0 (and temp_2_0 (< a_4 10)))))
(assert (or ab_2 (= x_5 (+ x_4 1))))
(assert (or ab_3 (= a_5 (+ a_4 1))))
(assert (or ab_1 (= temp_4_0 (and temp_3_0 (< a_5 10)))))
(assert (or ab_2 (= x_6 (+ x_5 1))))
(assert (or ab_3 (= a_6 (+ a_5 1))))
(assert (= x_7 (ite temp_4_0 x_6 x_5)))
(assert (= a_7 (ite temp_4_0 a_6 a_5)))
(assert (= x_8 (ite temp_3_0 x_7 x_4)))
(assert (= a_8 (ite temp_3_0 a_7 a_4)))
(assert (= x_9 (ite temp_2_0 x_8 x_3)))
(assert (= a_9 (ite temp_2_0 a_8 a_3)))
(assert (= x_10 (ite temp_1_0 x_9 x_2)))
(assert (= a_10 (ite temp_1_0 a_9 a_2)))
(assert (= x_11 (ite temp_0_0 x_10 x_1)))
(assert (= a_11 (ite temp_0_0 a_10 a_1)))
(assert (or ab_4 (= temp_5_0 (> b_1 1))))
(assert (or ab_5 (= temp_6_0 (and temp_5_0 (> b_1 2)))))
(assert (or ab_6 (= temp_7_0 (and temp_6_0 (> b_1 3)))))
(assert (or ab_7 (= x_12 (- x_11 1))))
(assert (= x_13 (ite temp_7_0 x_12 x_11)))
(assert (= x_14 (ite temp_6_0 x_13 x_11)))
(assert (= x_15 (ite temp_5_0 x_14 x_11)))
(assert (= objective (+ (ite ab_0 1 0) (ite ab_5 1 0) (ite ab_1 1 0) (ite ab_6 1 0) (ite ab_2 1 0) (ite ab_7 1 0) (ite ab_3 1 0) (ite ab_4 1 0))))